NAME : Christ50-5-f.39948.tour
COMMENT : Length = 39948
COMMENT : Found by LKH-3 [Keld Helsgaun] Tue Dec 17 14:06:57 2024
TYPE : TOUR
DIMENSION : 60
TOUR_SECTION
1
7
29
11
13
8
48
12
28
53
31
36
33
41
40
25
34
26
21
55
39
35
15
54
43
16
37
6
32
51
17
52
22
42
20
38
50
49
47
24
45
46
9
10
14
30
19
56
2
23
57
3
18
58
4
44
59
5
27
60
-1
EOF
